10 6 15 4 11 18 14 5 9 19 8 12 17 1 0 2 7 13 16 3  
10 6 15 4 11 18 14 5 9 8 19 12 0 1 17 2 7 13 16 3  
10 6 15 4 18 14 11 7 8 17 12 9 19 2 13 16 5 0 1 3  
10 6 15 4 14 18 11 5 9 19 2 12 17 1 0 13 16 7 3 8  
6 10 4 15 18 14 11 5 9 8 19 12 17 1 0 13 7 2 16 3  
10 6 15 4 18 14 11 5 9 8 19 12 17 1 0 2 13 16 7 3  
10 6 15 4 18 14 11 5 9 19 2 12 17 1 0 13 16 7 3 8  
10 6 11 4 15 18 14 5 9 8 19 12 17 1 0 7 2 13 16 3  
10 6 15 4 18 14 11 5 9 19 8 12 17 1 0 7 2 13 16 3  
10 6 15 4 18 14 11 7 8 17 12 9 19 5 2 1 0 13 16 3  
10 6 15 4 11 18 14 5 9 19 8 12 17 1 0 2 7 13 16 3  
10 6 15 5 18 14 7 2 11 4 19 12 17 1 0 9 13 16 3 8  
10 6 15 4 18 14 11 5 9 19 2 12 17 1 0 13 16 7 3 8  
10 6 15 4 18 14 11 5 9 8 19 12 17 1 0 2 13 16 7 3  
10 6 15 4 11 18 14 5 9 8 19 16 17 1 7 2 0 13 12 3  
10 6 15 4 11 18 14 5 9 19 8 17 12 0 1 7 13 2 16 3  
10 6 15 4 8 14 11 5 9 19 18 12 17 1 7 2 0 13 16 3  
10 6 15 4 18 14 11 7 8 17 12 9 19 5 3 1 0 13 16 2  
10 6 15 5 18 9 14 11 7 2 19 4 12 17 1 0 13 16 3 8  
10 6 15 4 11 18 14 5 9 19 8 12 0 2 17 1 7 13 16 3  
10 6 15 4 11 18 14 5 9 8 19 16 17 1 0 12 7 13 2 3  
10 6 15 4 11 18 14 5 9 19 8 17 12 0 1 13 7 2 16 3  
10 6 15 4 18 14 11 7 5 8 9 19 12 17 1 0 2 13 16 3  
10 6 15 4 18 14 11 7 8 17 12 9 19 5 13 2 16 0 1 3  
10 6 15 4 18 14 11 7 8 5 9 19 12 17 1 0 13 2 16 3  
10 6 15 4 18 14 11 7 8 17 12 9 19 5 2 1 0 13 16 3  
10 6 11 4 15 8 5 7 18 19 0 1 17 12 9 2 13 16 3 14  
10 6 15 4 14 18 11 5 9 19 2 12 17 1 0 13 16 7 3 8  
